125
[12,13,14,15,16,17,18,19,20,21,22,23,24,25,26,27,28,29,30,31,32,33,34,35,36,37,38,39,40,41,42,43,44,45,46,47,48,49,50,51,52,53,54,55,56,57,58,59,60,61,62,63,64,65,66,67,68,69,70,71,72,73,74,75,76,77,78,79,80,81,82,83,84,85,86,87]
[16,19,12,13,10,10,10,14,12,13,9,11,15,13,8,17,12,7,16,13,11,11,15,14,4,14,15,14,9,18,13,14,11,11,10,11,15,11,21,11,6,9,12,14,13,16,14,15,20,12,15,16,8,13,10,21,10,7,19,15,12,19,20,12,15,19,14,11,19,13,12,14,15,10,14,13]
